NAME : 50-5-3-i.27521.tour
COMMENT : Length = 27521
COMMENT : Found by LKH-3 [Keld Helsgaun] Tue Dec 17 14:06:59 2024
TYPE : TOUR
DIMENSION : 60
TOUR_SECTION
1
26
28
30
33
24
32
27
34
23
25
31
44
51
49
42
47
52
39
45
40
46
48
37
43
36
55
50
53
54
38
41
16
18
8
19
12
10
7
11
15
9
17
20
14
6
13
35
29
21
22
56
2
57
3
58
4
59
5
60
-1
EOF
